p wcnf 8 23 106
106 1 2 0
106 1 3 0
106 1 4 0
106 1 5 0
106 1 6 0
106 1 7 0
106 1 8 0
106 2 3 0
106 3 4 0
106 3 7 0
106 3 8 0
106 4 7 0
106 5 6 0
106 5 7 0
106 5 8 0
8 -1 0
14 -2 0
12 -3 0
14 -4 0
12 -5 0
15 -6 0
15 -7 0
15 -8 0
